c Random 8-CNF over 30 variables and 300 clauses
c Generated with `cnfgen`
c (C) 2012-2016 Massimo Lauria <lauria.massimo@gmail.com>
c https://massimolauria.github.io/cnfgen
c
c COMMAND LINE: cnfgen --output tmp-8-30-300.dimacs --output-format dimacs randkcnf 8 30 300
c
c sdimacs generated by gen-sdimacs
c
p cnf 30 300
e 16 17 18 19 20 21 22 23 24 25 26 27 28 29 30 0
r 0.37 1 2 3 4 5 6 7 8 9 10 11 12 13 14 15 0
-2 -3 -14 -16 17 -23 24 28 0
-1 -2 12 24 -26 27 28 -30 0
-5 -7 11 -13 -14 -26 -29 30 0
1 7 -8 18 20 -23 25 -29 0
-1 -7 -11 -14 15 19 26 -29 0
2 -6 -17 -20 21 -22 27 28 0
-3 -6 10 -16 -21 -22 -26 30 0
-6 -7 -10 -12 -16 24 28 29 0
-7 11 16 -17 22 23 24 27 0
3 7 -10 -16 -18 22 27 -28 0
6 -8 -14 17 23 24 -25 27 0
-2 -3 -6 9 11 17 25 -29 0
-9 -12 -15 -20 23 25 -28 -29 0
2 4 -5 19 -24 -25 -26 -30 0
-1 4 7 9 13 24 25 -28 0
-6 -7 -11 17 -20 -21 -23 -25 0
1 -6 -13 15 20 21 -23 -25 0
-2 -3 7 -13 18 -20 24 -28 0
1 3 -9 -10 12 22 -29 -30 0
3 4 9 -14 18 24 -27 29 0
-5 8 -13 22 23 24 26 27 0
-2 6 -10 -20 21 27 -28 -30 0
-6 7 -12 -15 -16 -18 -22 28 0
3 11 -22 -25 26 27 28 -29 0
-1 -2 -10 14 -17 -26 -29 -30 0
2 -8 11 18 -20 21 22 -29 0
10 13 -14 -15 17 20 21 -22 0
-1 -3 10 -11 -13 -18 21 23 0
1 2 -4 -7 -11 -14 -16 24 0
-3 4 -6 -15 18 20 -21 29 0
-12 15 16 -19 -21 23 24 28 0
-4 5 -6 7 -12 -20 27 -28 0
2 9 -10 -11 17 18 28 -29 0
4 10 11 15 -16 -18 22 -26 0
-10 12 13 16 18 24 -28 -29 0
-5 -9 12 -21 -22 23 -29 -30 0
5 8 -9 11 -17 24 25 -26 0
1 10 -12 13 16 -22 26 27 0
-1 2 -11 17 -19 -22 25 29 0
6 8 17 -19 21 -22 -23 30 0
3 5 7 -9 -15 -17 23 -29 0
-5 6 9 10 16 -17 21 -30 0
-5 -9 12 15 -17 23 27 -30 0
-11 -16 18 -24 -25 26 27 -28 0
-4 5 8 14 -17 23 -25 26 0
1 2 4 -14 21 -24 26 29 0
5 -8 -16 -19 22 25 26 -29 0
2 4 5 7 -14 -15 18 -21 0
3 8 18 22 -25 26 -28 -30 0
-5 -6 12 -15 -20 -22 23 24 0
-2 -6 -10 -12 13 16 17 -27 0
3 -6 10 12 15 -18 -26 -27 0
-1 -5 13 15 -16 22 -24 -27 0
-2 -7 -15 -16 -18 -21 -27 30 0
-5 7 -12 -14 -22 -23 -28 -29 0
-3 11 -13 -14 -17 18 19 -23 0
-8 9 -10 -12 13 -21 26 28 0
-3 -4 5 10 -20 22 -23 -30 0
-2 -7 -9 11 16 -17 -18 -29 0
3 -5 11 13 -16 17 23 -24 0
-3 -4 -13 -14 17 -20 21 -23 0
-6 15 -16 18 19 21 23 -26 0
-3 5 -11 -12 14 15 -22 -23 0
6 8 -9 11 16 -22 -28 30 0
7 -8 -12 -20 -24 25 -26 29 0
-4 5 -7 -9 22 23 -26 -27 0
-2 8 10 -12 13 19 22 -26 0
-1 2 5 -6 11 20 -22 -23 0
-1 -4 5 -8 13 14 -15 22 0
6 7 -10 14 15 -20 25 26 0
-1 -11 -12 -13 -19 22 23 24 0
9 -11 -12 -13 -20 -21 -23 -30 0
-4 -8 -9 -10 12 -21 22 26 0
-3 7 8 -17 19 -24 -27 -30 0
-5 8 -14 15 -17 22 24 27 0
-7 9 -11 13 -14 21 -22 -26 0
3 -9 13 -17 -19 -23 27 -29 0
-1 11 -13 -16 22 24 -26 -29 0
2 -3 7 -9 -10 -15 26 -28 0
-4 6 -13 -14 20 22 23 -28 0
1 -4 6 8 -11 -16 -21 -30 0
1 8 11 -12 -19 21 -22 -25 0
3 6 -7 -10 -13 -20 -23 28 0
-3 -9 10 13 -18 -22 23 27 0
1 5 6 -8 15 -17 25 -30 0
2 7 -11 12 -14 17 19 -23 0
-1 -3 -7 8 -10 11 20 -21 0
1 -12 17 -19 -22 26 28 29 0
-2 3 -4 -11 -14 20 21 24 0
-3 -6 10 -11 14 26 -27 -29 0
9 13 -15 16 18 -19 -23 -28 0
-1 3 -6 7 13 -20 -21 28 0
-3 9 11 12 -23 25 27 30 0
-1 -9 -14 16 -18 20 25 -27 0
3 -9 14 -17 -20 -21 -24 27 0
-9 -12 -14 -18 -21 -23 -25 26 0
-1 4 6 -7 14 15 -27 -28 0
5 7 -11 -16 19 -20 21 24 0
3 -5 6 -10 -17 20 27 28 0
-4 -5 12 13 -14 -15 -16 -30 0
-5 -6 9 10 13 14 19 -29 0
-4 7 -10 19 20 -22 -24 -28 0
-1 -4 -6 8 -16 23 25 -30 0
-2 3 6 13 -16 -19 29 -30 0
16 17 22 25 27 -28 29 30 0
-3 5 -9 -13 -14 -25 -28 29 0
2 -3 -5 -8 -13 -15 23 -30 0
-1 -2 7 13 16 -18 19 -23 0
3 9 -14 -16 -17 22 -27 29 0
-4 -11 12 14 -15 20 -21 30 0
-5 6 9 10 22 24 -28 -29 0
-2 3 -5 7 -8 9 15 21 0
11 17 18 21 22 -23 -24 -30 0
-4 -5 -6 9 16 25 27 28 0
1 -13 -17 18 -21 24 -28 29 0
-1 -5 8 12 17 -19 22 28 0
-2 -4 11 13 15 19 25 -30 0
3 4 -5 -9 15 16 24 -27 0
-1 -6 -8 -9 13 -16 18 20 0
5 -9 12 -16 -18 -20 27 30 0
5 -7 -9 11 -17 20 21 -22 0
-14 -16 17 20 25 26 -27 30 0
-1 -4 -10 12 -13 -24 25 26 0
5 12 15 18 21 24 25 29 0
-9 -11 -16 21 -23 25 -26 27 0
4 -9 12 -15 -16 -18 21 -25 0
5 -9 -12 -17 22 -25 26 -30 0
-1 4 7 11 12 -17 26 -27 0
-2 -8 -9 13 20 -21 27 30 0
-3 6 9 -10 -14 16 -22 -25 0
-4 -5 -13 19 21 -23 -26 28 0
1 4 -5 -16 -20 -21 -24 27 0
1 -8 -12 14 17 -19 25 -28 0
-2 -8 -9 14 -15 23 24 29 0
-2 -4 8 -11 12 16 -18 28 0
-1 4 8 9 17 -18 21 27 0
-1 4 -13 18 22 -24 28 29 0
-3 4 6 -8 -19 21 25 -30 0
1 -3 7 -9 -11 -12 23 -26 0
-2 -11 15 -17 18 -22 -26 -27 0
-1 9 -10 -16 -18 20 -24 -25 0
1 -4 -10 -12 14 24 -25 30 0
-2 -6 -7 10 -12 13 -15 -16 0
-1 6 9 17 -23 27 29 -30 0
-3 6 -9 16 21 -24 -28 -29 0
-10 13 -14 -15 20 -24 26 29 0
3 9 12 -17 -21 23 -24 29 0
3 4 5 6 -10 -15 29 30 0
4 5 10 -19 21 -22 25 26 0
-7 -8 10 12 -13 -19 -20 -25 0
-1 -5 -6 -10 15 16 18 23 0
-6 8 -10 -11 -15 18 -19 21 0
3 -10 -13 18 -19 -23 26 27 0
-6 -12 14 15 -17 18 -20 -26 0
-4 -6 -10 15 17 -20 21 -27 0
2 6 -10 -12 -16 17 -22 29 0
-6 -12 -13 -21 23 -24 -27 28 0
-7 9 -10 20 -21 23 -24 26 0
-6 10 16 -20 -21 -27 -28 -30 0
-6 8 -9 -15 21 -22 -23 -29 0
1 -3 -8 -11 -12 14 -19 25 0
12 14 15 16 20 21 -23 28 0
2 -3 6 -13 -18 26 28 -29 0
-3 -5 7 -16 19 -21 24 -27 0
-4 14 17 22 24 25 27 -30 0
2 -6 13 15 -17 22 28 -29 0
-6 -12 -14 18 -21 -26 27 30 0
5 -6 -8 -11 -13 -20 -23 -28 0
-1 -2 -3 10 -15 -23 25 28 0
-2 7 -9 -10 11 -17 -23 -25 0
8 9 -10 -12 -16 -18 21 -23 0
2 3 -5 6 8 -11 -22 -24 0
-1 5 -7 -8 -9 17 19 -23 0
-3 5 10 -12 -13 17 -28 29 0
-5 6 -10 -12 -16 -18 -19 26 0
-10 13 -17 -18 -19 23 -26 30 0
2 -4 -14 -16 24 -25 26 -27 0
-7 8 -9 -10 11 -19 -23 26 0
-8 -13 -15 -17 21 -24 26 27 0
-1 -6 -13 16 -18 19 21 -30 0
1 -4 5 7 -9 -11 12 -15 0
11 -16 17 -19 -20 -21 23 -24 0
4 -5 8 -13 14 -15 22 27 0
-6 -8 -10 17 -21 24 25 29 0
-8 9 11 15 19 -23 -25 30 0
1 -7 -9 -10 -13 22 28 30 0
-4 6 7 -9 22 -23 24 -30 0
3 9 11 -13 -25 -27 29 -30 0
-6 8 12 -15 21 22 -23 29 0
-1 -4 -5 14 19 -25 29 -30 0
2 3 9 -14 17 22 -23 -29 0
-3 -4 -9 -16 21 -22 -28 -29 0
3 -7 10 13 -19 21 23 24 0
4 -5 -11 -15 -20 -21 27 29 0
-1 4 7 8 18 23 -24 27 0
-1 -10 -12 13 -19 24 -28 30 0
4 -6 -7 -15 -17 -20 -22 -24 0
-1 5 8 -10 11 13 -22 25 0
1 4 6 12 13 14 -20 -24 0
7 10 11 -13 18 -19 -22 -23 0
-9 12 16 -17 25 26 27 -29 0
-10 13 -15 16 20 22 25 -27 0
2 3 5 11 12 -14 23 28 0
-2 -4 -5 9 15 18 19 -27 0
3 -10 14 -16 -18 -22 26 -29 0
2 6 12 -14 16 17 22 -26 0
-7 -9 19 -21 -22 -24 -26 -27 0
-4 -12 16 -18 21 -25 -26 30 0
1 2 15 -16 -18 23 25 -30 0
-3 7 8 -9 11 25 26 29 0
-2 -3 -4 -7 -12 -14 21 26 0
-4 9 -10 13 16 -18 -19 25 0
-1 -6 -7 16 21 22 -28 30 0
-3 -5 -8 -15 -17 19 -21 23 0
-2 -4 -5 7 -12 -27 29 -30 0
8 -9 -17 -19 20 25 -26 -29 0
6 13 14 -17 19 -20 24 -25 0
1 3 5 -6 -13 20 -28 -30 0
-1 18 20 -22 -23 27 28 29 0
2 -6 11 15 -16 18 22 24 0
5 9 10 -11 14 21 23 -26 0
1 -2 3 6 -9 -13 -17 -29 0
1 8 -12 15 17 -23 -27 30 0
-2 -3 17 -18 22 -23 -25 -28 0
-2 -3 -8 10 19 20 -22 23 0
1 7 -12 24 -25 -26 28 30 0
-6 -8 -9 12 -13 -19 -20 -24 0
-2 -6 -9 10 16 21 24 28 0
2 -3 4 5 10 -12 -23 -30 0
-7 -11 14 -15 -16 -20 22 -29 0
1 3 -8 19 -26 28 -29 30 0
6 -10 -12 -13 14 17 -19 23 0
-2 8 -12 18 -26 27 28 -29 0
-2 -9 -10 11 -13 -18 22 25 0
-3 4 -10 -11 -13 -15 -18 -28 0
4 -13 -17 19 23 25 26 -29 0
1 4 6 7 -17 19 26 -28 0
-1 -3 4 6 11 -15 21 -29 0
-3 -8 12 15 -17 -18 -21 -25 0
-2 4 9 -14 15 18 19 28 0
-5 -8 -12 14 15 -25 29 -30 0
5 -7 -9 13 19 22 26 28 0
-6 10 12 -16 22 24 26 30 0
-1 3 5 7 16 -19 24 -25 0
3 4 -6 9 -11 -15 18 -21 0
1 -5 7 -9 11 20 -21 -28 0
3 4 -5 -7 -12 19 -20 -24 0
2 -6 8 11 15 24 -27 28 0
-4 -5 -19 -22 24 -26 -29 30 0
-1 5 8 14 18 21 -22 29 0
10 -12 14 19 -21 22 -25 -29 0
-5 -9 11 -13 17 19 -20 25 0
2 4 6 17 -21 24 28 29 0
-7 10 11 12 13 18 25 -30 0
7 -9 -10 12 13 14 -16 28 0
1 -2 7 11 -24 -26 -27 28 0
5 6 -7 12 18 -19 22 -23 0
-2 -3 4 11 17 23 26 -28 0
3 5 -10 11 -12 -25 -26 -30 0
4 8 -15 -16 -23 25 27 30 0
1 2 3 6 9 -13 -18 26 0
-1 2 10 14 17 18 -19 -30 0
4 -5 -6 13 14 -24 26 -27 0
-1 10 -12 -15 -18 -23 -24 26 0
-4 5 -7 10 19 23 -25 29 0
-8 -11 14 -18 -20 -21 -25 30 0
3 -7 11 -14 -16 -18 21 25 0
4 -9 -11 -13 17 -18 22 24 0
-2 -5 -9 -14 -15 -17 -25 28 0
-1 -2 -6 8 -9 -19 -24 -30 0
-2 3 8 9 14 -16 -22 26 0
1 -3 5 -7 11 -13 -17 -29 0
-1 7 9 -12 15 -23 25 28 0
-8 11 13 16 -19 -21 25 29 0
-1 -2 4 6 -14 19 20 26 0
-4 -13 14 17 -21 -23 26 27 0
-6 7 15 17 -20 21 -24 -26 0
-7 -8 -10 -13 -14 -27 -29 30 0
4 11 -13 19 20 -24 -27 -30 0
3 8 12 -16 -20 21 23 -28 0
-1 3 -4 -6 11 -17 18 26 0
3 -5 -6 12 13 14 -16 -24 0
1 -6 16 -17 22 -28 -29 -30 0
-2 -3 -8 13 -14 -16 -22 -24 0
-3 5 7 -8 16 -21 -29 -30 0
1 -8 9 13 -20 21 25 -30 0
-3 4 7 8 -12 -13 20 -23 0
2 5 -7 -12 14 -16 28 29 0
-2 -5 -7 10 -14 16 17 -23 0
6 -7 -15 -19 -20 21 -24 -26 0
-4 -6 -7 12 13 16 20 24 0
3 7 10 12 19 22 -27 28 0
-4 10 -12 -13 17 25 29 30 0
2 -4 -5 6 9 23 -25 26 0
-2 7 -10 -14 23 25 -27 -30 0
-1 -3 7 8 18 -21 -23 -28 0
2 -3 -6 -8 9 -24 -26 28 0
-1 -14 -17 19 -22 27 28 30 0
-1 8 -10 15 17 -20 23 -28 0
3 -5 -7 9 -18 19 20 21 0
